
Gurobi 9.1.2 (win64) logging started Tue Dec  7 11:06:40 2021

Gurobi Optimizer version 9.1.2 build v9.1.2rc0 (win64)
Thread count: 8 physical cores, 8 logical processors, using up to 8 threads
Optimize a model with 1 rows, 14 columns and 13 nonzeros
Model fingerprint: 0xa5dd5b67
Variable types: 1 continuous, 13 integer (13 binary)
Coefficient statistics:
  Matrix range     [1e+00, 9e+00]
  Objective range  [1e+00, 1e+00]
  Bounds range     [2e-01, 2e-01]
  RHS range        [1e+01, 1e+01]
Presolve time: 0.00s
Presolved: 1 rows, 14 columns, 13 nonzeros
Variable types: 1 continuous, 13 integer (13 binary)

Root simplex log...

Iteration    Objective       Primal Inf.    Dual Inf.      Time
       0    1.7185995e-01   4.329080e-02   0.000000e+00     14s
       2    1.7185995e-01   0.000000e+00   0.000000e+00     14s

Root relaxation: objective 1.718599e-01, 2 iterations, 0.00 seconds

    Nodes    |    Current Node    |     Objective Bounds      |     Work
 Expl Unexpl |  Obj  Depth IntInf | Incumbent    BestBd   Gap | It/Node Time

*    0     0               0       0.1718599    0.17186  0.00%     -   14s

Cutting planes:
  Lazy constraints: 2

Explored 0 nodes (3 simplex iterations) in 14.56 seconds
Thread count was 8 (of 8 available processors)

Solution count 1: 0.17186 

Optimal solution found (tolerance 1.00e-04)
Best objective 1.718599498267e-01, best bound 1.718599498267e-01, gap 0.0000%

User-callback calls 54, time in user-callback 18.27 sec
